sat
(
  (define-fun M () String
    "b")
  (define-fun I () String
    "")
  (define-fun Y () String
    "aa")
  (define-fun T () String
    "")
  (define-fun P () String
    "")
  (define-fun S () String
    "")
  (define-fun G () String
    "a")
  (define-fun O () String
    "baaaab")
  (define-fun Q () String
    "")
  (define-fun V () String
    "")
  (define-fun H () String
    "")
  (define-fun Z () String
    "")
  (define-fun R () String
    "")
)
